30 61
29
11 5 13 40
4 11 13 29
19 10 0 0
7 10 17 30
9 16 0 35
9 9 15 45
5 8 20 3
25 7 5 54
7 13 18 11
7 12 11 10
7 7 6 24
7 5 13 24
6 24 24 30
6 18 0 16
11 6 0 10
10 6 20 24
5 6 6 16
5 21 25 3
4 23 9 31
4 10 0 51
2 4 7 31
4 2 5 51
4 1 0 34
6 3 24 0
5 3 19 0
12 2 6 22
2 7 13 45
1 2 19 3
1 4 4 51

301
True
NOT_OPTIMAL